sat
(:max-memory              28.07
 :memory                  18.46
 :num-allocs              2052204
 :rlimit-count            18982
 :sat-backjumps           19
 :sat-conflicts           19
 :sat-decisions           125
 :sat-minimized-lits      140
 :sat-mk-clause-2ary      1825
 :sat-mk-clause-nary      10499
 :sat-mk-var              2593
 :sat-propagations-2ary   2271
 :sat-propagations-nary   4046
 :sat-subs-resolution-dyn 2
 :time                    0.02
 :total-time              0.03)
